
Gurobi 9.5.2 (win64) logging started Wed Apr 12 17:49:04 2023

Set parameter LogFile to value "./ccga_results/2023-04-12 17-49-02-447/MSP_TimeStampConvert_gurobi_log.txt"

Gurobi 9.5.2 (win64) logging started Wed Apr 12 17:49:04 2023

Set parameter LogFile to value "./ccga_results/2023-04-12 17-49-02-447/MSP_TimeStampConvert_gurobi_log.txt"
Set parameter TimeLimit to value 180
Gurobi Optimizer version 9.5.2 build v9.5.2rc0 (win64)
Thread count: 10 physical cores, 20 logical processors, using up to 20 threads
Optimize a model with 600 rows, 457 columns and 1482 nonzeros
Model fingerprint: 0xe7727400
Variable types: 25 continuous, 432 integer (432 binary)
Coefficient statistics:
  Matrix range     [1e+00, 1e+00]
  Objective range  [1e+00, 1e+00]
  Bounds range     [8e+02, 8e+02]
  RHS range        [1e+00, 1e+00]
Found heuristic solution: objective 19200.000000

Explored 0 nodes (0 simplex iterations) in 0.00 seconds (0.00 work units)
Thread count was 1 (of 20 available processors)

Solution count 1: 19200 

Optimal solution found (tolerance 5.00e-02)
Best objective 1.920000000000e+04, best bound 1.920000000000e+04, gap 0.0000%

User-callback calls 21, time in user-callback 0.00 sec
Gurobi Optimizer version 9.5.2 build v9.5.2rc0 (win64)
Thread count: 10 physical cores, 20 logical processors, using up to 20 threads
Optimize a model with 2173 rows, 961 columns and 6491 nonzeros
Model fingerprint: 0xbc43f553
Variable types: 481 continuous, 480 integer (480 binary)
Coefficient statistics:
  Matrix range     [2e-02, 8e+02]
  Objective range  [1e+00, 1e+00]
  Bounds range     [8e+02, 8e+02]
  RHS range        [1e+00, 1e+08]

MIP start from previous solve did not produce a new incumbent solution

Presolve removed 513 rows and 166 columns
Presolve time: 0.02s
Presolved: 1660 rows, 795 columns, 5490 nonzeros
Variable types: 404 continuous, 391 integer (391 binary)
Found heuristic solution: objective 11172.085030
Found heuristic solution: objective 11263.561168

Root relaxation: objective 1.814733e+04, 413 iterations, 0.00 seconds (0.00 work units)

    Nodes    |    Current Node    |     Objective Bounds      |     Work
 Expl Unexpl |  Obj  Depth IntInf | Incumbent    BestBd   Gap | It/Node Time

*    0     0               0    18147.327470 18147.3275  0.00%     -    0s

Explored 1 nodes (769 simplex iterations) in 0.04 seconds (0.05 work units)
Thread count was 20 (of 20 available processors)

Solution count 3: 18147.3 11263.6 11172.1 

Optimal solution found (tolerance 5.00e-02)
Best objective 1.814732747000e+04, best bound 1.814732747000e+04, gap 0.0000%

User-callback calls 698, time in user-callback 0.00 sec
Gurobi Optimizer version 9.5.2 build v9.5.2rc0 (win64)
Thread count: 10 physical cores, 20 logical processors, using up to 20 threads
Optimize a model with 3746 rows, 1465 columns and 11500 nonzeros
Model fingerprint: 0x5b81446b
Variable types: 937 continuous, 528 integer (528 binary)
Coefficient statistics:
  Matrix range     [2e-02, 8e+02]
  Objective range  [1e+00, 1e+00]
  Bounds range     [8e+02, 8e+02]
  RHS range        [1e+00, 1e+08]

MIP start from previous solve did not produce a new incumbent solution

Presolve removed 934 rows and 282 columns
Presolve time: 0.03s
Presolved: 2812 rows, 1183 columns, 9716 nonzeros
Variable types: 792 continuous, 391 integer (391 binary)
Found heuristic solution: objective 7949.7953098

Root relaxation: objective 1.720760e+04, 856 iterations, 0.01 seconds (0.01 work units)

    Nodes    |    Current Node    |     Objective Bounds      |     Work
 Expl Unexpl |  Obj  Depth IntInf | Incumbent    BestBd   Gap | It/Node Time

     0     0 17207.5959    0   21 7949.79531 17207.5959   116%     -    0s
H    0     0                    16839.660633 17207.5959  2.18%     -    0s

Explored 1 nodes (1385 simplex iterations) in 0.08 seconds (0.10 work units)
Thread count was 20 (of 20 available processors)

Solution count 2: 16839.7 7949.8 

Optimal solution found (tolerance 5.00e-02)
Best objective 1.683966063300e+04, best bound 1.720759587614e+04, gap 2.1849%

User-callback calls 635, time in user-callback 0.00 sec
Gurobi Optimizer version 9.5.2 build v9.5.2rc0 (win64)
Thread count: 10 physical cores, 20 logical processors, using up to 20 threads
Optimize a model with 5319 rows, 1969 columns and 16509 nonzeros
Model fingerprint: 0xcd458bb6
Variable types: 1393 continuous, 576 integer (576 binary)
Coefficient statistics:
  Matrix range     [2e-02, 8e+02]
  Objective range  [1e+00, 1e+00]
  Bounds range     [8e+02, 8e+02]
  RHS range        [1e+00, 1e+08]

MIP start from previous solve did not produce a new incumbent solution

Presolve removed 1354 rows and 401 columns
Presolve time: 0.04s
Presolved: 3965 rows, 1568 columns, 13938 nonzeros
Variable types: 1177 continuous, 391 integer (391 binary)
Found heuristic solution: objective 7154.2859191

Root relaxation: objective 1.490346e+04, 1708 iterations, 0.02 seconds (0.03 work units)

    Nodes    |    Current Node    |     Objective Bounds      |     Work
 Expl Unexpl |  Obj  Depth IntInf | Incumbent    BestBd   Gap | It/Node Time

     0     0 14903.4594    0   54 7154.28592 14903.4594   108%     -    0s
H    0     0                    14273.304384 14903.4594  4.41%     -    0s

Cutting planes:
  Gomory: 11
  Cover: 1
  MIR: 59
  Flow cover: 77
  Relax-and-lift: 5

Explored 1 nodes (2168 simplex iterations) in 0.16 seconds (0.22 work units)
Thread count was 20 (of 20 available processors)

Solution count 2: 14273.3 7154.29 

Optimal solution found (tolerance 5.00e-02)
Best objective 1.427330438376e+04, best bound 1.490345944493e+04, gap 4.4149%

User-callback calls 665, time in user-callback 0.00 sec
Gurobi Optimizer version 9.5.2 build v9.5.2rc0 (win64)
Thread count: 10 physical cores, 20 logical processors, using up to 20 threads
Optimize a model with 6892 rows, 2473 columns and 21518 nonzeros
Model fingerprint: 0x5f2034eb
Variable types: 1849 continuous, 624 integer (624 binary)
Coefficient statistics:
  Matrix range     [2e-02, 8e+02]
  Objective range  [1e+00, 1e+00]
  Bounds range     [8e+02, 8e+02]
  RHS range        [1e+00, 1e+08]

MIP start from previous solve did not produce a new incumbent solution

Presolve removed 1773 rows and 519 columns
Presolve time: 0.05s
Presolved: 5119 rows, 1954 columns, 17760 nonzeros
Variable types: 1560 continuous, 394 integer (391 binary)
Found heuristic solution: objective 6117.2531718

Root relaxation: objective 1.386397e+04, 2773 iterations, 0.04 seconds (0.04 work units)

    Nodes    |    Current Node    |     Objective Bounds      |     Work
 Expl Unexpl |  Obj  Depth IntInf | Incumbent    BestBd   Gap | It/Node Time

     0     0 13863.9680    0   87 6117.25317 13863.9680   127%     -    0s
H    0     0                    12518.427220 13863.9680  10.7%     -    0s
     0     0 13827.9887    0  108 12518.4272 13827.9887  10.5%     -    0s
H    0     0                    12595.389256 13827.9887  9.79%     -    0s
H    0     0                    13088.294366 13824.3336  5.62%     -    0s
     0     0 13822.5830    0  123 13088.2944 13822.5830  5.61%     -    0s
     0     0 13822.5830    0  130 13088.2944 13822.5830  5.61%     -    0s
     0     0 13822.5830    0  130 13088.2944 13822.5830  5.61%     -    0s
     0     0 13822.5830    0  130 13088.2944 13822.5830  5.61%     -    0s
     0     0 13796.9950    0  123 13088.2944 13796.9950  5.41%     -    0s
     0     0 13796.9950    0  149 13088.2944 13796.9950  5.41%     -    0s
     0     0 13794.4960    0  145 13088.2944 13794.4960  5.40%     -    0s
     0     0 13794.0028    0  145 13088.2944 13794.0028  5.39%     -    0s
     0     0 13788.2610    0  129 13088.2944 13788.2610  5.35%     -    0s
H    0     0                    13264.620736 13783.9845  3.92%     -    0s
     0     0 13783.9845    0  140 13264.6207 13783.9845  3.92%     -    0s

Cutting planes:
  Gomory: 9
  Cover: 2
  MIR: 94
  Flow cover: 103
  Relax-and-lift: 5

Explored 1 nodes (5327 simplex iterations) in 0.50 seconds (0.56 work units)
Thread count was 20 (of 20 available processors)

Solution count 5: 13264.6 13088.3 12595.4 ... 6117.25

Optimal solution found (tolerance 5.00e-02)
Best objective 1.326462073588e+04, best bound 1.378398453958e+04, gap 3.9154%

User-callback calls 821, time in user-callback 0.00 sec
Gurobi Optimizer version 9.5.2 build v9.5.2rc0 (win64)
Thread count: 10 physical cores, 20 logical processors, using up to 20 threads
Optimize a model with 8465 rows, 2977 columns and 26527 nonzeros
Model fingerprint: 0xd69ce860
Variable types: 2305 continuous, 672 integer (672 binary)
Coefficient statistics:
  Matrix range     [2e-02, 8e+02]
  Objective range  [1e+00, 1e+00]
  Bounds range     [8e+02, 8e+02]
  RHS range        [1e+00, 1e+08]

MIP start from previous solve did not produce a new incumbent solution

Presolve removed 2194 rows and 639 columns
Presolve time: 0.07s
Presolved: 6271 rows, 2338 columns, 21852 nonzeros
Variable types: 1944 continuous, 394 integer (391 binary)
Found heuristic solution: objective 5535.6418833

Root relaxation: objective 1.151688e+04, 4468 iterations, 0.13 seconds (0.13 work units)

    Nodes    |    Current Node    |     Objective Bounds      |     Work
 Expl Unexpl |  Obj  Depth IntInf | Incumbent    BestBd   Gap | It/Node Time

     0     0 11516.8765    0   97 5535.64188 11516.8765   108%     -    0s
H    0     0                    10102.890719 11516.8765  14.0%     -    0s
     0     0 11495.5232    0  163 10102.8907 11495.5232  13.8%     -    0s
     0     0 11495.5232    0  163 10102.8907 11495.5232  13.8%     -    0s
H    0     0                    10737.375937 11495.5232  7.06%     -    0s
     0     0 11489.7781    0  205 10737.3759 11489.7781  7.01%     -    0s
     0     0 11489.3292    0  187 10737.3759 11489.3292  7.00%     -    0s
     0     0 11488.4133    0  182 10737.3759 11488.4133  6.99%     -    0s
     0     0 11488.1018    0  187 10737.3759 11488.1018  6.99%     -    0s
     0     0 11488.0845    0  190 10737.3759 11488.0845  6.99%     -    0s
     0     0 11488.0829    0  193 10737.3759 11488.0829  6.99%     -    0s
     0     0 11484.7706    0  212 10737.3759 11484.7706  6.96%     -    0s
     0     0 11484.6003    0  211 10737.3759 11484.6003  6.96%     -    0s
     0     0 11484.5962    0  214 10737.3759 11484.5962  6.96%     -    0s
H    0     0                    10867.385260 11484.5962  5.68%     -    0s
H    0     0                    10882.380856 11483.2802  5.52%     -    0s
     0     0 11483.2802    0  202 10882.3809 11483.2802  5.52%     -    0s
     0     0 11483.0561    0  221 10882.3809 11483.0561  5.52%     -    1s
H    0     0                    10923.432276 11482.3314  5.12%     -    1s
H    0     0                    10923.442083 11482.3314  5.12%     -    1s
     0     0 11482.3314    0  211 10923.4421 11482.3314  5.12%     -    1s
     0     0 11480.6756    0  196 10923.4421 11480.6756  5.10%     -    1s
     0     0 11480.3956    0  202 10923.4421 11480.3956  5.10%     -    1s
     0     0 11480.3956    0  202 10923.4421 11480.3956  5.10%     -    1s
     0     0 11465.1995    0  188 10923.4421 11465.1995  4.96%     -    1s

Cutting planes:
  Gomory: 5
  Cover: 3
  Implied bound: 1
  MIR: 175
  Flow cover: 205
  Relax-and-lift: 4

Explored 1 nodes (10188 simplex iterations) in 1.12 seconds (1.26 work units)
Thread count was 20 (of 20 available processors)

Solution count 7: 10923.4 10923.4 10882.4 ... 5535.64

Optimal solution found (tolerance 5.00e-02)
Best objective 1.092344208280e+04, best bound 1.146519954134e+04, gap 4.9596%

User-callback calls 1010, time in user-callback 0.00 sec
Gurobi Optimizer version 9.5.2 build v9.5.2rc0 (win64)
Thread count: 10 physical cores, 20 logical processors, using up to 20 threads
Optimize a model with 10038 rows, 3481 columns and 31536 nonzeros
Model fingerprint: 0xed7f01e1
Variable types: 2761 continuous, 720 integer (720 binary)
Coefficient statistics:
  Matrix range     [2e-02, 8e+02]
  Objective range  [1e+00, 1e+00]
  Bounds range     [8e+02, 8e+02]
  RHS range        [1e+00, 1e+08]

MIP start from previous solve did not produce a new incumbent solution

Presolve removed 2615 rows and 759 columns
Presolve time: 0.08s
Presolved: 7423 rows, 2722 columns, 25938 nonzeros
Variable types: 2328 continuous, 394 integer (391 binary)
Found heuristic solution: objective 5368.7553626

Root relaxation: objective 1.116004e+04, 5021 iterations, 0.15 seconds (0.15 work units)

    Nodes    |    Current Node    |     Objective Bounds      |     Work
 Expl Unexpl |  Obj  Depth IntInf | Incumbent    BestBd   Gap | It/Node Time

     0     0 11160.0383    0  106 5368.75536 11160.0383   108%     -    0s
H    0     0                    9589.2508993 11160.0383  16.4%     -    0s
     0     0 11142.5182    0  206 9589.25090 11142.5182  16.2%     -    0s
H    0     0                    9763.7427250 11142.5182  14.1%     -    0s
     0     0 11142.5182    0  213 9763.74272 11142.5182  14.1%     -    0s
H    0     0                    9995.1776424 11142.5182  11.5%     -    0s
     0     0 11127.8046    0  215 9995.17764 11127.8046  11.3%     -    0s
     0     0 11127.6426    0  208 9995.17764 11127.6426  11.3%     -    0s
     0     0 11127.3797    0  211 9995.17764 11127.3797  11.3%     -    0s
     0     0 11127.3510    0  219 9995.17764 11127.3510  11.3%     -    0s
     0     0 11127.3510    0  219 9995.17764 11127.3510  11.3%     -    0s
     0     0 11110.3413    0  215 9995.17764 11110.3413  11.2%     -    0s
H    0     0                    10189.812985 11109.4775  9.03%     -    1s
     0     0 11109.4775    0  222 10189.8130 11109.4775  9.03%     -    1s
     0     0 11109.1108    0  222 10189.8130 11109.1108  9.02%     -    1s
H    0     0                    10345.935650 11109.0851  7.38%     -    1s
     0     0 11109.0851    0  225 10345.9356 11109.0851  7.38%     -    1s
     0     0 11109.0851    0  225 10345.9356 11109.0851  7.38%     -    1s
     0     0 11106.5347    0  213 10345.9356 11106.5347  7.35%     -    1s
H    0     0                    10485.261423 11106.4306  5.92%     -    1s
     0     0 11106.4306    0  210 10485.2614 11106.4306  5.92%     -    1s
     0     0 11106.1782    0  224 10485.2614 11106.1782  5.92%     -    1s
     0     0 11106.1542    0  233 10485.2614 11106.1542  5.92%     -    1s
     0     0 11106.0384    0  227 10485.2614 11106.0384  5.92%     -    1s
     0     0 11106.0384    0  227 10485.2614 11106.0384  5.92%     -    1s
     0     0 11104.4928    0  192 10485.2614 11104.4928  5.91%     -    1s
H    0     0                    10508.821253 11104.4891  5.67%     -    1s
     0     0 11104.4891    0  204 10508.8213 11104.4891  5.67%     -    1s
H    0     0                    10536.672329 11104.4891  5.39%     -    1s
H    0     0                    10602.144073 11104.4891  4.74%     -    1s

Cutting planes:
  Gomory: 9
  Cover: 6
  Implied bound: 1
  MIR: 241
  Flow cover: 201
  RLT: 1
  Relax-and-lift: 4

Explored 1 nodes (12476 simplex iterations) in 1.47 seconds (1.71 work units)
Thread count was 20 (of 20 available processors)

Solution count 10: 10602.1 10536.7 10508.8 ... 5368.76

Optimal solution found (tolerance 5.00e-02)
Best objective 1.060214407338e+04, best bound 1.110448905294e+04, gap 4.7381%

User-callback calls 1107, time in user-callback 0.00 sec
Gurobi Optimizer version 9.5.2 build v9.5.2rc0 (win64)
Thread count: 10 physical cores, 20 logical processors, using up to 20 threads
Optimize a model with 11611 rows, 3985 columns and 36545 nonzeros
Model fingerprint: 0x03ab057b
Variable types: 3217 continuous, 768 integer (768 binary)
Coefficient statistics:
  Matrix range     [2e-02, 8e+02]
  Objective range  [1e+00, 1e+00]
  Bounds range     [8e+02, 8e+02]
  RHS range        [1e+00, 1e+08]

MIP start from previous solve did not produce a new incumbent solution

Presolve removed 3036 rows and 879 columns
Presolve time: 0.11s
Presolved: 8575 rows, 3106 columns, 30054 nonzeros
Variable types: 2712 continuous, 394 integer (391 binary)
Found heuristic solution: objective 5042.8495024

Root relaxation: objective 1.006514e+04, 6040 iterations, 0.17 seconds (0.18 work units)

    Nodes    |    Current Node    |     Objective Bounds      |     Work
 Expl Unexpl |  Obj  Depth IntInf | Incumbent    BestBd   Gap | It/Node Time

     0     0 10065.1386    0  115 5042.84950 10065.1386   100%     -    0s
H    0     0                    8405.7373013 10065.1386  19.7%     -    0s
     0     0 10047.7580    0  187 8405.73730 10047.7580  19.5%     -    0s
     0     0 10039.0517    0  194 8405.73730 10039.0517  19.4%     -    0s
     0     0 10039.0517    0  194 8405.73730 10039.0517  19.4%     -    0s
H    0     0                    8976.4538256 10020.5806  11.6%     -    0s
     0     0 10014.9143    0  219 8976.45383 10014.9143  11.6%     -    0s
     0     0 10014.9143    0  206 8976.45383 10014.9143  11.6%     -    0s
     0     0 10013.3235    0  199 8976.45383 10013.3235  11.6%     -    0s
     0     0 10012.8302    0  207 8976.45383 10012.8302  11.5%     -    0s
     0     0 10012.7337    0  207 8976.45383 10012.7337  11.5%     -    0s
     0     0 10012.7337    0  210 8976.45383 10012.7337  11.5%     -    0s
     0     0 10004.8846    0  221 8976.45383 10004.8846  11.5%     -    1s
H    0     0                    9188.9333484 9989.60635  8.71%     -    1s
     0     0 9989.60635    0  197 9188.93335 9989.60635  8.71%     -    1s
     0     0 9986.72669    0  196 9188.93335 9986.72669  8.68%     -    1s
     0     0 9983.29475    0  203 9188.93335 9983.29475  8.64%     -    1s
     0     0 9982.89198    0  200 9188.93335 9982.89198  8.64%     -    1s
     0     0 9982.89107    0  200 9188.93335 9982.89107  8.64%     -    1s
     0     0 9978.07517    0  185 9188.93335 9978.07517  8.59%     -    1s
     0     0 9921.74710    0  169 9188.93335 9921.74710  7.97%     -    1s
     0     0 9921.73693    0  192 9188.93335 9921.73693  7.97%     -    1s
     0     0 9901.26927    0  219 9188.93335 9901.26927  7.75%     -    1s
     0     0 9898.21545    0  211 9188.93335 9898.21545  7.72%     -    1s
     0     0 9898.21540    0  213 9188.93335 9898.21540  7.72%     -    1s
H    0     0                    9233.3915310 9897.06598  7.19%     -    1s
     0     0 9897.06598    0  191 9233.39153 9897.06598  7.19%     -    1s
     0     0 9896.73285    0  220 9233.39153 9896.73285  7.18%     -    1s
     0     0 9896.69346    0  220 9233.39153 9896.69346  7.18%     -    1s
H    0     0                    9253.6275430 9893.78538  6.92%     -    2s
     0     0 9893.78538    0  203 9253.62754 9893.78538  6.92%     -    2s
     0     0 9893.34796    0  202 9253.62754 9893.34796  6.91%     -    2s
     0     0 9893.27286    0  205 9253.62754 9893.27286  6.91%     -    2s
     0     0 9893.27286    0  202 9253.62754 9893.27286  6.91%     -    2s
H    0     0                    9268.3621955 9893.27286  6.74%     -    2s
     0     0 9891.79680    0  204 9268.36220 9891.79680  6.73%     -    2s
     0     0 9891.24964    0  208 9268.36220 9891.24964  6.72%     -    2s
     0     0 9890.65399    0  211 9268.36220 9890.65399  6.71%     -    2s
     0     0 9890.54768    0  211 9268.36220 9890.54768  6.71%     -    2s
     0     0 9890.54768    0  211 9268.36220 9890.54768  6.71%     -    2s
     0     0 9886.48183    0  204 9268.36220 9886.48183  6.67%     -    2s
     0     0 9886.47691    0  210 9268.36220 9886.47691  6.67%     -    2s
     0     0 9886.46206    0  210 9268.36220 9886.46206  6.67%     -    2s
     0     0 9886.46206    0  212 9268.36220 9886.46206  6.67%     -    2s
     0     0 9886.46206    0  212 9268.36220 9886.46206  6.67%     -    2s
     0     0 9886.46206    0  143 9268.36220 9886.46206  6.67%     -    2s
     0     2 9886.46206    0  138 9268.36220 9886.46206  6.67%     -    2s
H  122   131                    9289.7877918 9881.07624  6.36%   391    3s
H  123   131                    9377.9085245 9881.07624  5.37%   389    3s
   392   377 9537.19394   37   80 9377.90852 9881.07624  5.37%   283    5s
H  393   377                    9403.8863941 9881.07624  5.07%   282    5s
H  396   377                    9425.6021962 9881.07624  4.83%   282    5s

Cutting planes:
  Gomory: 13
  Implied bound: 6
  MIR: 628
  Flow cover: 468
  Relax-and-lift: 16

Explored 402 nodes (133341 simplex iterations) in 5.06 seconds (7.72 work units)
Thread count was 20 (of 20 available processors)

Solution count 10: 9425.6 9403.89 9377.91 ... 8405.74

Optimal solution found (tolerance 5.00e-02)
Best objective 9.425602196226e+03, best bound 9.881076239091e+03, gap 4.8323%

User-callback calls 2574, time in user-callback 0.00 sec
Gurobi Optimizer version 9.5.2 build v9.5.2rc0 (win64)
Thread count: 10 physical cores, 20 logical processors, using up to 20 threads
Optimize a model with 13184 rows, 4489 columns and 41554 nonzeros
Model fingerprint: 0xe5f9a213
Variable types: 3673 continuous, 816 integer (816 binary)
Coefficient statistics:
  Matrix range     [2e-02, 8e+02]
  Objective range  [1e+00, 1e+00]
  Bounds range     [8e+02, 8e+02]
  RHS range        [1e+00, 1e+08]

MIP start from previous solve did not produce a new incumbent solution

Presolve removed 3457 rows and 999 columns
Presolve time: 0.12s
Presolved: 9727 rows, 3490 columns, 34010 nonzeros
Variable types: 3096 continuous, 394 integer (391 binary)
Found heuristic solution: objective 4935.0597300
Found heuristic solution: objective 5180.8369878

Root relaxation: objective 9.466938e+03, 6724 iterations, 0.21 seconds (0.22 work units)

    Nodes    |    Current Node    |     Objective Bounds      |     Work
 Expl Unexpl |  Obj  Depth IntInf | Incumbent    BestBd   Gap | It/Node Time

     0     0 9466.93848    0  143 5180.83699 9466.93848  82.7%     -    0s
H    0     0                    6895.1467106 9466.93848  37.3%     -    0s
     0     0 9296.75926    0  176 6895.14671 9296.75926  34.8%     -    1s
H    0     0                    7470.0461165 9296.75926  24.5%     -    1s
     0     0 9294.93362    0  162 7470.04612 9294.93362  24.4%     -    1s
     0     0 9294.93362    0  165 7470.04612 9294.93362  24.4%     -    1s
     0     0 9273.70573    0  177 7470.04612 9273.70573  24.1%     -    1s
     0     0 9273.27193    0  191 7470.04612 9273.27193  24.1%     -    1s
H    0     0                    7620.1943256 9271.81475  21.7%     -    1s
     0     0 9271.81475    0  194 7620.19433 9271.81475  21.7%     -    1s
     0     0 9271.76999    0  195 7620.19433 9271.76999  21.7%     -    1s
     0     0 9271.76999    0  195 7620.19433 9271.76999  21.7%     -    1s
H    0     0                    8495.6752051 9262.43202  9.03%     -    1s
     0     0 9262.43202    0  209 8495.67521 9262.43202  9.03%     -    1s
     0     0 9208.74180    0  202 8495.67521 9208.74180  8.39%     -    1s
     0     0 9206.06380    0  193 8495.67521 9206.06380  8.36%     -    1s
     0     0 9204.70756    0  183 8495.67521 9204.70756  8.35%     -    1s
     0     0 9204.67849    0  192 8495.67521 9204.67849  8.35%     -    1s
H    0     0                    8593.4905945 9187.47145  6.91%     -    2s
     0     0 9187.47145    0  210 8593.49059 9187.47145  6.91%     -    2s
     0     0 9180.95247    0  205 8593.49059 9180.95247  6.84%     -    2s
     0     0 9178.36903    0  198 8593.49059 9178.36903  6.81%     -    2s
     0     0 9178.10656    0  183 8593.49059 9178.10656  6.80%     -    2s
     0     0 9177.90380    0  201 8593.49059 9177.90380  6.80%     -    2s
     0     0 9177.89498    0  201 8593.49059 9177.89498  6.80%     -    2s
     0     0 9175.55470    0  210 8593.49059 9175.55470  6.77%     -    2s
     0     0 9175.50043    0  210 8593.49059 9175.50043  6.77%     -    2s
     0     0 9174.20258    0  225 8593.49059 9174.20258  6.76%     -    2s
     0     0 9174.19337    0  228 8593.49059 9174.19337  6.76%     -    2s
     0     0 9173.71105    0  215 8593.49059 9173.71105  6.75%     -    2s
     0     0 9173.70745    0  221 8593.49059 9173.70745  6.75%     -    2s
     0     0 9173.69484    0  220 8593.49059 9173.69484  6.75%     -    2s
     0     0 9173.69484    0  148 8593.49059 9173.69484  6.75%     -    3s
     0     2 9173.69484    0  145 8593.49059 9173.69484  6.75%     -    3s
H  302   308                    8604.6002751 9170.57375  6.58%   348    4s
   344   351 8819.34378   32   56 8604.60028 9170.57375  6.58%   331    5s
H  345   351                    8670.0011951 9170.57375  5.77%   330    5s
H  461   442                    8688.8173767 9170.57375  5.54%   293    9s
H  462   442                    8737.9709650 9170.57375  4.95%   294    9s

Cutting planes:
  Gomory: 10
  Implied bound: 12
  Clique: 1
  MIR: 493
  Flow cover: 403
  RLT: 4
  Relax-and-lift: 24

Explored 468 nodes (162640 simplex iterations) in 9.13 seconds (13.22 work units)
Thread count was 20 (of 20 available processors)

Solution count 10: 8737.97 8688.82 8670 ... 5180.84

Optimal solution found (tolerance 5.00e-02)
Best objective 8.737970964960e+03, best bound 9.170573750649e+03, gap 4.9508%

User-callback calls 2973, time in user-callback 0.00 sec
Gurobi Optimizer version 9.5.2 build v9.5.2rc0 (win64)
Thread count: 10 physical cores, 20 logical processors, using up to 20 threads
Optimize a model with 14757 rows, 4993 columns and 46563 nonzeros
Model fingerprint: 0x9f02efd7
Variable types: 4129 continuous, 864 integer (864 binary)
Coefficient statistics:
  Matrix range     [2e-02, 8e+02]
  Objective range  [1e+00, 1e+00]
  Bounds range     [8e+02, 8e+02]
  RHS range        [1e+00, 1e+08]

MIP start from previous solve produced solution with objective 8078.36 (0.06s)
Loaded MIP start from previous solve with objective 8078.36

Presolve removed 3878 rows and 1119 columns
Presolve time: 0.14s
Presolved: 10879 rows, 3874 columns, 38019 nonzeros
Variable types: 3480 continuous, 394 integer (391 binary)

Root relaxation: objective 9.050157e+03, 7469 iterations, 0.23 seconds (0.25 work units)

    Nodes    |    Current Node    |     Objective Bounds      |     Work
 Expl Unexpl |  Obj  Depth IntInf | Incumbent    BestBd   Gap | It/Node Time

     0     0 9050.15741    0  153 8078.36372 9050.15741  12.0%     -    0s
     0     0 8846.14362    0  178 8078.36372 8846.14362  9.50%     -    0s
     0     0 8846.14362    0  183 8078.36372 8846.14362  9.50%     -    1s
     0     0 8846.14362    0  183 8078.36372 8846.14362  9.50%     -    1s
     0     0 8828.55490    0  211 8078.36372 8828.55490  9.29%     -    1s
     0     0 8825.34723    0  205 8078.36372 8825.34723  9.25%     -    1s
     0     0 8825.34667    0  211 8078.36372 8825.34667  9.25%     -    1s
     0     0 8822.32290    0  227 8078.36372 8822.32290  9.21%     -    1s
     0     0 8813.93337    0  227 8078.36372 8813.93337  9.11%     -    1s
     0     0 8813.52539    0  233 8078.36372 8813.52539  9.10%     -    1s
     0     0 8812.71323    0  236 8078.36372 8812.71323  9.09%     -    1s
     0     0 8812.41513    0  235 8078.36372 8812.41513  9.09%     -    1s
     0     0 8812.41513    0  238 8078.36372 8812.41513  9.09%     -    1s
     0     0 8809.38537    0  221 8078.36372 8809.38537  9.05%     -    2s
     0     0 8809.00754    0  225 8078.36372 8809.00754  9.04%     -    2s
     0     0 8808.95435    0  224 8078.36372 8808.95435  9.04%     -    2s
     0     0 8806.88965    0  239 8078.36372 8806.88965  9.02%     -    2s
     0     0 8805.67209    0  239 8078.36372 8805.67209  9.00%     -    2s
     0     0 8805.54776    0  241 8078.36372 8805.54776  9.00%     -    2s
     0     0 8804.37757    0  239 8078.36372 8804.37757  8.99%     -    2s
     0     0 8804.34184    0  245 8078.36372 8804.34184  8.99%     -    2s
     0     0 8801.27586    0  233 8078.36372 8801.27586  8.95%     -    2s
     0     0 8799.78557    0  233 8078.36372 8799.78557  8.93%     -    2s
     0     0 8799.17649    0  236 8078.36372 8799.17649  8.92%     -    2s
     0     0 8798.93660    0  238 8078.36372 8798.93660  8.92%     -    2s
     0     0 8798.82361    0  240 8078.36372 8798.82361  8.92%     -    2s
     0     0 8798.82361    0  237 8078.36372 8798.82361  8.92%     -    2s
     0     0 8798.49784    0  233 8078.36372 8798.49784  8.91%     -    2s
     0     0 8795.96861    0  223 8078.36372 8795.96861  8.88%     -    2s
     0     0 8795.96230    0  220 8078.36372 8795.96230  8.88%     -    2s
     0     0 8795.23757    0  225 8078.36372 8795.23757  8.87%     -    3s
     0     0 8795.11908    0  224 8078.36372 8795.11908  8.87%     -    3s
     0     0 8794.98716    0  238 8078.36372 8794.98716  8.87%     -    3s
     0     0 8794.89691    0  242 8078.36372 8794.89691  8.87%     -    3s
     0     0 8794.19050    0  242 8078.36372 8794.19050  8.86%     -    3s
     0     0 8794.16947    0  242 8078.36372 8794.16947  8.86%     -    3s
H    0     0                    8087.0328090 8794.16947  8.74%     -    3s
     0     0 8794.06905    0  238 8087.03281 8794.06905  8.74%     -    3s
     0     0 8794.06892    0  238 8087.03281 8794.06892  8.74%     -    3s
     0     0 8794.03257    0  238 8087.03281 8794.03257  8.74%     -    3s
     0     0 8794.03257    0  238 8087.03281 8794.03257  8.74%     -    3s
     0     0 8794.01551    0  238 8087.03281 8794.01551  8.74%     -    3s
     0     0 8794.01551    0  177 8087.03281 8794.01551  8.74%     -    3s
     0     2 8794.01551    0  177 8087.03281 8794.01551  8.74%     -    4s
   145   170 8570.84932   15  117 8087.03281 8788.39552  8.67%   393    5s
H  240   245                    8111.0984969 8788.39552  8.35%   341    5s
H  277   284                    8112.6195867 8788.39552  8.33%   338    5s
H  279   284                    8117.1382084 8788.39552  8.27%   336    5s
H  381   386                    8214.9013742 8788.39552  6.98%   309    8s
H  382   386                    8222.0816085 8788.39552  6.89%   308    8s
H  389   386                    8226.8918367 8788.39552  6.83%   307    8s
H  476   459                    8227.2807511 8788.39552  6.82%   296    8s
   494   469 8783.37299   10  165 8227.28075 8788.39552  6.82%   292   10s
H  500   469                    8268.7524916 8788.39552  6.28%   292   10s
  1552  1293 8786.07285    9  203 8268.75249 8788.38829  6.28%   303   18s
H 1560  1288                    8273.7524916 8788.38829  6.22%   304   18s
  1640  1359 8454.03582   24  177 8273.75249 8788.38829  6.22%   304   24s
  1642  1360 8435.85624   35  124 8273.75249 8788.38829  6.22%   303   25s
  1660  1372 8512.23578   26  169 8273.75249 8775.00226  6.06%   300   30s
  1674  1382 8336.09574   47  184 8273.75249 8769.03577  5.99%   297   35s
  1686  1390 8482.54501   49  191 8273.75249 8767.73205  5.97%   295   40s
  1694  1395 8612.58075   21  254 8273.75249 8767.49351  5.97%   294   45s
  1695  1399 8767.49351   16  248 8273.75249 8767.49351  5.97%   355   50s
  1860  1519 8669.00618   25  207 8273.75249 8765.86507  5.95%   387   55s
H 2123  1612                    8277.9716031 8765.86507  5.89%   390   69s
H 2127  1544                    8301.8252016 8765.86507  5.59%   392   69s
H 2129  1479                    8305.1925217 8765.86507  5.55%   391   69s
  2218  1544 8665.68745   38  175 8305.19252 8765.86507  5.55%   396   70s
H 3187  1905                    8305.3037010 8765.86507  5.55%   399   74s
H 3188  1848                    8305.3086945 8765.86507  5.55%   399   74s
  3198  1904 8424.29432   74   57 8305.30869 8765.86507  5.55%   400   75s
  3632  2020 8745.23308   21  229 8305.30869 8765.25858  5.54%   404   80s
  4472  2572 8543.42182   33  136 8305.30869 8761.70422  5.50%   414   85s
  5506  3232 8744.28624   31  228 8305.30869 8758.02963  5.45%   420   90s
  6508  4066 8731.78100   30  219 8305.30869 8746.42583  5.31%   424   95s
  7276  4603 8563.00551   41  135 8305.30869 8746.42583  5.31%   426  100s
  8001  5227 8414.79512   54  110 8305.30869 8734.56073  5.17%   426  105s
  8920  6143 8345.14709   59   89 8305.30869 8734.56073  5.17%   437  110s
  9885  6706 8510.47807   37  159 8305.30869 8731.14926  5.13%   444  115s
*10736  6858             110    8344.8868076 8729.06028  4.60%   440  119s

Cutting planes:
  Gomory: 27
  Implied bound: 8
  Projected implied bound: 13
  MIR: 1705
  Flow cover: 2193
  RLT: 2
  Relax-and-lift: 51

Explored 10915 nodes (4823241 simplex iterations) in 119.43 seconds (198.22 work units)
Thread count was 20 (of 20 available processors)

Solution count 10: 8344.89 8305.31 8301.83 ... 8214.9

Optimal solution found (tolerance 5.00e-02)
Best objective 8.344886807623e+03, best bound 8.729060276869e+03, gap 4.6037%

User-callback calls 33568, time in user-callback 0.03 sec
